NAME : random_5
COMMENT : 31 random nodes
TYPE : TSP
DIMENSION : 31
EDGE_WEIGHT_TYPE : EUC_2D
NODE_COORD_SECTION
1 4228 -729
2 -1487 720
3 -2359 -2680
4 -898 2392
5 805 -2620
6 -789 1773
7 -1850 -789
8 606 1170
9 893 -2098
10 2997 4246
11 -1684 2699
12 1048 106
13 2686 2544
14 4565 2569
15 3450 3085
16 2061 -427
17 1559 -186
18 -2374 -1380
19 -2410 -1888
20 3763 907
21 217 3365
22 -499 2388
23 3915 -541
24 3378 605
25 125 -2570
26 -1495 3936
27 3155 2866
28 2568 3905
29 2824 1012
30 -1118 4415
31 -815 -2473
EOF